(set-info :source  loris-7.ddns.comp.nus.edu.sg/~project/hip/) 
;Variables declarations
(declare-fun nc_10928 () Int)
(declare-fun nd () Int)
(declare-fun Anon_20 () Int)
(declare-fun nb_10927 () Int)
(declare-fun nc () Int)
(declare-fun a () Int)
(declare-fun b () Int)
(declare-fun c_primed () Int)
(declare-fun c () Int)
(declare-fun d_primed () Int)
(declare-fun d () Int)
(declare-fun color_primed () Int)
(declare-fun flted_168_10985 () Int)
(declare-fun flted_168_10984 () Int)
(declare-fun flted_168_10983 () Int)
(declare-fun flted_168_10982 () Int)
(declare-fun color () Int)
(declare-fun v_int_175_10987 () Int)
(declare-fun v_11067 () Int)
(declare-fun v_int_175_10986 () Int)
(declare-fun l_11068 () Int)
(declare-fun a_primed () Int)
(declare-fun r_11071 () Int)
(declare-fun b_primed () Int)
(declare-fun na () Int)
(declare-fun nb () Int)
(declare-fun h () Int)
(declare-fun bhr_11073 () Int)
(declare-fun bhl_11070 () Int)
(declare-fun ha () Int)
(declare-fun na_10926 () Int)
(declare-fun nr_11072 () Int)
(declare-fun nl_11069 () Int)
;Relations declarations
;Axioms assertions
;Antecedent
(assert (= nc_10928 nd))
(assert (= Anon_20 flted_168_10983))
(assert (= nb_10927 nc))
(assert (= a_primed a))
(assert (= b_primed b))
(assert (= c_primed c))
(assert (= d_primed d))
(assert (= color_primed color))
(assert (= flted_168_10985 0))
(assert (= flted_168_10984 0))
(assert (= flted_168_10983 0))
(assert (= flted_168_10982 0))
(assert (= color 0))
(assert (= v_int_175_10986 0))
(assert (= v_int_175_10987 1))
(assert (= v_11067 v_int_175_10986))
(assert (= l_11068 a_primed))
(assert (= r_11071 b_primed))
(assert (= nl_11069 na))
(assert (= bhl_11070 h))
(assert (= nr_11072 nb))
(assert (= bhr_11073 h))
(assert (= bhr_11073 bhl_11070))
(assert (= bhr_11073 ha))
(assert (= bhl_11070 ha))
(assert (= na_10926 (+ (+ nr_11072 1) nl_11069)))
;Negation of Consequence
(assert (not false))
(check-sat)